% Instancia generada para Grupo 5
% Diámetros: [75, 100, 150] mm
% Capacidades: [795, 1414, 3181] l/min
% Demanda total: 1403 l/min
% Costos tipo a: 194, tipo b: 163
% Semilla: 834602

nP = 2;
nT = 7;
nC1 = 5;
nC2 = 14;
N = 28;

nA = 119;
arc_from = [1, 1, 1, 1, 1, 1, 1, 2, 2, 2, 2, 2, 2, 2, 3, 3, 3, 3, 3, 4, 4, 4, 4, 4, 5, 5, 5, 5, 5, 6, 6, 6, 6, 6, 7, 7, 7, 7, 7, 8, 8, 8, 8, 8, 9, 9, 9, 9, 9, 10, 10, 10, 10, 10, 10, 10, 10, 10, 10, 10, 10, 10, 10, 11, 11, 11, 11, 11, 11, 11, 11, 11, 11, 11, 11, 11, 11, 12, 12, 12, 12, 12, 12, 12, 12, 12, 12, 12, 12, 12, 12, 13, 13, 13, 13, 13, 13, 13, 13, 13, 13, 13, 13, 13, 13, 14, 14, 14, 14, 14, 14, 14, 14, 14, 14, 14, 14, 14, 14];
arc_to   = [3, 4, 5, 6, 7, 8, 9, 3, 4, 5, 6, 7, 8, 9, 10, 11, 12, 13, 14, 10, 11, 12, 13, 14, 10, 11, 12, 13, 14, 10, 11, 12, 13, 14, 10, 11, 12, 13, 14, 10, 11, 12, 13, 14, 10, 11, 12, 13, 14, 15, 16, 17, 18, 19, 20, 21, 22, 23, 24, 25, 26, 27, 28, 15, 16, 17, 18, 19, 20, 21, 22, 23, 24, 25, 26, 27, 28, 15, 16, 17, 18, 19, 20, 21, 22, 23, 24, 25, 26, 27, 28, 15, 16, 17, 18, 19, 20, 21, 22, 23, 24, 25, 26, 27, 28, 15, 16, 17, 18, 19, 20, 21, 22, 23, 24, 25, 26, 27, 28];

demand = [0, 0, 0, 0, 0, 0, 0, 0, 0, 68, 96, 99, 52, 69, 70, 77, 61, 81, 78, 60, 80, 52, 62, 98, 93, 59, 59, 89];

install_cost = array2d(1..119, 1..3, [50, 62, 78, 20, 62, 32, 50, 24, 32, 20, 24, 32, 20, 62, 32, 20, 62, 78, 20, 62, 32, 20, 24, 78, 20, 24, 32, 50, 24, 32, 20, 24, 32, 20, 24, 32, 20, 24, 32, 20, 24, 32, 20, 24, 32, 50, 24, 78, 50, 62, 78, 20, 62, 32, 20, 24, 78, 50, 62, 78, 20, 62, 78, 20, 24, 78, 20, 62, 32, 50, 62, 32, 50, 24, 78, 50, 24, 32, 20, 24, 78, 50, 24, 32, 20, 62, 78, 50, 24, 78, 20, 62, 78, 20, 62, 78, 50, 24, 78, 50, 24, 32, 20, 24, 78, 50, 62, 32, 50, 24, 32, 50, 24, 78, 20, 24, 78, 50, 24, 32, 50, 24, 78, 20, 62, 78, 20, 24, 32, 50, 62, 32, 20, 24, 78, 20, 62, 78, 50, 24, 32, 50, 62, 78, 20, 24, 78, 20, 24, 32, 50, 62, 32, 20, 24, 32, 50, 62, 78, 50, 24, 78, 20, 24, 78, 20, 24, 32, 20, 24, 32, 20, 24, 32, 50, 62, 78, 20, 24, 32, 20, 24, 78, 50, 24, 32, 20, 62, 78, 20, 62, 32, 20, 62, 78, 50, 24, 78, 20, 62, 32, 20, 62, 32, 20, 62, 78, 50, 62, 32, 20, 62, 78, 50, 62, 32, 20, 24, 78, 20, 62, 32, 50, 62, 78, 50, 24, 32, 20, 24, 32, 50, 62, 78, 20, 24, 32, 20, 62, 78, 50, 62, 78, 50, 62, 78, 50, 62, 32, 20, 62, 32, 50, 62, 32, 20, 62, 78, 50, 62, 78, 50, 62, 78, 50, 24, 78, 20, 24, 32, 50, 62, 32, 20, 24, 32, 20, 24, 32, 20, 24, 78, 20, 62, 78, 50, 24, 32, 50, 62, 78, 20, 62, 32, 50, 62, 32, 50, 62, 78, 50, 24, 78, 50, 62, 32, 20, 24, 32, 20, 62, 32, 20, 62, 78, 20, 24, 78, 50, 24, 78, 20, 24, 32, 20, 24, 32, 20, 62, 78, 50, 24, 32, 20, 24, 78, 20, 24, 32, 50, 62, 32, 50, 24, 32, 20, 24, 78, 50, 24, 32, 20, 24, 78, 20, 62, 32]);
trans_cost   = [7.52, 4.03, 8.41, 10.32, 7.24, 3.33, 7.67, 8.47, 5.66, 6.78, 4.86, 6.18, 8.85, 9.59, 11.05, 14.08, 6.34, 9.24, 9.33, 6.87, 5.85, 9.31, 11.35, 10.5, 11.77, 6.93, 7.56, 7.41, 6.31, 6.48, 5.94, 6.48, 7.15, 7.73, 8.69, 8.15, 8.3, 10.03, 7.29, 6.73, 8.19, 6.64, 7.99, 9.51, 7.86, 6.65, 7.38, 10.53, 10.38, 8.74, 5.47, 10.19, 6.17, 8.1, 10.18, 9.42, 5.22, 6.44, 10.42, 8.68, 6.96, 7.15, 6.62, 7.17, 11.18, 10.23, 5.94, 8.43, 9.13, 10.04, 9.92, 8.6, 6.91, 5.87, 7.15, 6.59, 8.21, 6.68, 12.42, 8.0, 8.87, 9.16, 9.54, 12.57, 7.21, 8.74, 9.35, 5.0, 7.04, 7.73, 7.25, 7.97, 9.03, 8.76, 9.16, 8.62, 8.97, 9.11, 6.67, 7.65, 11.6, 8.94, 7.92, 7.2, 12.69, 9.7, 7.26, 8.41, 6.72, 6.52, 7.01, 8.25, 4.51, 11.43, 7.37, 11.43, 6.37, 8.92, 9.38];
